(set-info :Origin "This instance was generated by: BanditFuzz-- an RL fuzzer for SMT solvers" )
(set-info :Author "Joe Scott, Fed Mora, Vijay Ganesh" )
(set-info :Contact "Joe Scott, joseph.scott@uwaterloo.ca")
; solvers/z3.sh
; 	time => 0.5036649703979492
; 	answer => sat
; solvers/bitwuzla.sh
; 	time => 0.3499410152435303
; 	answer => sat
; solvers/cvc4.sh
; 	time => 0.1093900203704834
; 	answer => err
(set-logic QF_BV)
(declare-const bool_0 Bool)
(declare-const bool_1 Bool)
(declare-const bool_2 Bool)
(declare-const bool_3 Bool)
(declare-const bool_4 Bool)
(declare-const bv_0 (_ BitVec 32))
(declare-const bv_1 (_ BitVec 32))
(declare-const bv_2 (_ BitVec 32))
(declare-const bv_3 (_ BitVec 32))
(declare-const bv_4 (_ BitVec 32))
(assert (bvuge (bvshl (bvsub #xcac5ef87  bv_3) (bvand bv_3 bv_3)) (bvurem (bvsub #x64a9f52a  #xb4a66126 ) (bvnand #xda6107a7  bv_2))))
(assert (bvugt (bvlshr (bvsrem bv_0 bv_3) (bvsub bv_1 #xac1d8603 )) (bvsmod (bvnand #x3fae9663  bv_3) (bvurem #x74d7fc06  bv_3))))
(assert (bvsgt (bvlshr (bvnor bv_3 bv_1) (bvand #xf6f81c0b  bv_3)) (bvsub (bvor bv_4 bv_2) (bvudiv bv_4 #x41c635d4 ))))
(assert (bvsge (bvsub (bvsmod bv_0 #x07c09284 ) (bvsmod bv_3 bv_0)) (bvand (bvsmod bv_1 #x5ecacf17 ) (bvmul #x48645928  #xed609d99 ))))
(assert (or (bvsle (bvxnor bv_0 #x03cde35a ) (bvxnor bv_3 bv_2)) (and (bvsle bv_2 #xfa5bfbaf ) (not false))))
(check-sat)
(exit)
